.gitconfig.ozn
[url "git@gitlab.ozon.ru:"]
	insteadOf = https://gitlab.ozon.ru/

# [url "git@gitlab.ozon.ru:/payfacade/libs/auth"]
# 	insteadOf = https://gitlab.ozon.ru/payfacade/libs/auth/auth

# [url "git@gitlab.ozon.ru:/payfacade/libs/logger"]
# 	insteadOf = https://gitlab.ozon.ru/payfacade/libs/logger/logger/

# [url "git@gitlab.ozon.ru:/payfacade/libs/logger"]
# 	insteadOf = https://gitlab.ozon.ru/payfacade/libs/logger
