.gitconfig
# This file is part of Danil Kutkevich <http://danil@kutkevich.org> home.
# man git-config
# <http://stackoverflow.com/questions/267761/what-does-your-gitconfig-contain>.

# [core]
#     pager = ""

[user]
	email = danil@kutkevich.org
	name = Danil Kutkevich

# [color]
#     diff = always
#     ui = true
# [diff]
# 	external = meld

# Global .gitignore
# <https://help.github.com/articles/ignoring-files#global-gitignore>,
# <http://stackoverflow.com/questions/7335420/global-git-ignore#7335487>.
# Emacs eshell <https://hexmode.com/2016/05/making-git-and-emacs-eshell-work-together>.
[core]
  # Committing only a file's permissions
  # <https://stackoverflow.com/questions/10516201/updating-and-committing-only-a-files-permissions-using-git-version-control#10516406>.
  filemode = true
	excludesfile = ~/.gitignore_global
	editor = emacs
	pager = `test \"$TERM\" = \"dumb\" && echo cat || echo less --IGNORE-CASE --LONG-PROMPT`

[url "git@github.com:danil/"]
	insteadOf = https://github.com/danil/

[url "git@github.com:danil/rktgorm.git"]
	insteadOf = https://github.com/danil/rktgorm

[url "git@gitlab.com:brokerhub/"]
	insteadOf = https://gitlab.com/brokerhub/

[includeIf "gitdir:~/src/vendor/ozon/"]
  path = ~/.gitconfig-ozon

[url "git@gitlab.ozon.ru:"]
	insteadOf = https://gitlab.ozon.ru/

[url "git@gitlab.ozon.ru:/payfacade/libs/auth"]
	insteadOf = https://gitlab.ozon.ru/payfacade/libs/auth/auth

# [includeIf "gitdir:~/src/vendor/rocketbank/"]
#   path = ~/.gitconfig-rocketbank

# [includeIf "gitdir:~/src/vendor/armor5games/"]
#   path = ~/.gitconfig-armor5games
